64 33
85 12
98 14
32 10
22 52
76 26
30 12
47 60
74 10
77 34
5 19
52 34
29 26
20 158
28 11
30 63
57 42
52 80
42 31
37 86
77 21
94 45
17 3
65 9
95 5
18 128
32 36
37 26
20 113
5 156
59 43
4 76
32 66
1 150
97 31
30 93
78 69
17 85
20 159
6 28
42 44
33 51
13 178
40 48
51 26
93 1
22 157
3 41
55 36
25 157
15 103
60 4
54 20
6 97
62 94
40 74
32 2
11 92
81 20
13 62
34 49
50 101
12 77
7 187
86 7
27 19
18 86
50 40
9 48
24 17
84 29
39 68
22 103
66 59
22 36
5 155
21 117
7 91
69 65
54 36
42 89
85 36
15 56
8 37
11 47
21 195
40 9
35 41
86 18
85 45
22 97
36 139
89 43
86 51
63 52
68 75
25 45
58 31
11 132
45 73
